
Log started (V11.0.0) Sun Apr 13 13:32:08 2008

Tried aggregator 1 time.
Reduced MIP has 220 rows, 4001 columns, and 8020 nonzeros.
Presolve time =    0.03 sec.
Clique table members: 200.
MIP emphasis: balance optimality and feasibility.
MIP search method: dynamic search.
Parallel mode: none, using 1 thread.
Root relaxation solution time =    0.09 sec.

        Nodes                                         Cuts/
   Node  Left     Objective  IInf  Best Integer     Best Node    ItCnt     Gap

*     0+    0                        10432.0000       52.4426      524   99.50%
*     0+    0                           66.0000       52.4426      524   20.54%
      0     0       53.0000    33       66.0000      Fract: 9      551   19.70%
*     0+    0                           65.0000       53.0000      551   18.46%
      0     0       53.0000    36       65.0000     Covers: 4      560   18.46%
      0     0       53.0000    35       65.0000     Covers: 2      572   18.46%
*     0+    0                           62.0000       53.0000      572   14.52%
*     0+    0                           59.0000       53.0000      572   10.17%
*     0+    0                           57.0000       53.0000      572    7.02%

Repeating presolve.
Tried aggregator 1 time.
MIP Presolve eliminated 0 rows and 1795 columns.
Reduced MIP has 220 rows, 2206 columns, and 4430 nonzeros.
Tried aggregator 1 time.
Represolve time =    0.09 sec.
Clique table members: 433.
MIP emphasis: balance optimality and feasibility.
MIP search method: dynamic search.
Parallel mode: none, using 1 thread.
Root relaxation solution time =    0.06 sec.

        Nodes                                         Cuts/
   Node  Left     Objective  IInf  Best Integer     Best Node    ItCnt     Gap

      0     0       53.0000    33       57.0000       53.0000      420    7.02%
      0     2       53.0000    33       57.0000       53.0000      420    7.02%
    100    75       56.0000    32       57.0000       53.0000     3688    7.02%
    200   150        cutoff             57.0000       53.0000     6713    7.02%
    300   222       54.0000    75       57.0000       53.0000     8939    7.02%
*   390+  216                           56.0000       53.0000    11320    5.36%
    400   228       54.0000    65       56.0000       53.0000    11630    5.36%
    500   313       54.0000    41       56.0000       53.0000    14329    5.36%
    600   312    infeasible             56.0000       54.0000    20469    3.57%
    700   306       55.0000    35       56.0000       54.0000    26258    3.57%
    800   319       54.0000    63       56.0000       54.0000    32955    3.57%
    900   326       55.0000    63       56.0000       54.0000    40896    3.57%
*   914+   83                           55.0000       54.0000    42911    1.82%
   1000   110    infeasible             55.0000       54.0000    55755    1.82%
Elapsed time =  20.02 sec. (tree size =  0.77 MB, solutions = 8)
   1100   142       54.0000    68       55.0000       54.0000    85788    1.82%
   1200   176    infeasible             55.0000       54.0000   108879    1.82%
   1300   120    infeasible             55.0000       54.0000   185637    1.82%
   1400   144       54.0000   100       55.0000       54.0000   230059    1.82%
   1500   158       54.0000   155       55.0000       54.0000   266336    1.82%
   1600   194    infeasible             55.0000       54.0000   290205    1.82%
   1700   192       54.0000   124       55.0000       54.0000   346110    1.82%
   1800   170    infeasible             55.0000       54.0000   399233    1.82%
   1900   142       54.0000   148       55.0000       54.0000   451774    1.82%
   2000   116    infeasible             55.0000       54.0000   513391    1.82%
Elapsed time = 158.86 sec. (tree size =  1.40 MB, solutions = 8)
   2100    72       54.0000   128       55.0000       54.0000   577843    1.82%
   2200    20       54.0000   160       55.0000       54.0000   644371    1.82%
   2300    34    infeasible             55.0000       54.0000   686384    1.82%

Clique cuts applied:  1
Cover cuts applied:  895
Implied bound cuts applied:  1
Mixed integer rounding cuts applied:  31
Zero-half cuts applied:  1
Gomory fractional cuts applied:  8

Solution pool: 8 solutions saved.

MIP - Integer optimal solution:  Objective = 5.5000000000e+001
Solution time =  236.11 sec.  Iterations = 721411  Nodes = 2343


Incumbent solution
Variable Name           Solution Value
Cmax                         55.000000
X_1_10                        1.000000
X_2_1                         1.000000
X_3_9                         1.000000
X_4_8                         1.000000
X_5_1                         1.000000
X_6_13                        1.000000
X_7_14                        1.000000
X_8_15                        1.000000
X_9_12                        1.000000
X_10_8                        1.000000
X_11_12                       1.000000
X_12_1                        1.000000
X_13_12                       1.000000
X_14_1                        1.000000
X_15_1                        1.000000
X_16_5                        1.000000
X_17_7                        1.000000
X_18_17                       1.000000
X_19_1                        1.000000
X_20_19                       1.000000
X_21_1                        1.000000
X_22_15                       1.000000
X_23_17                       1.000000
X_24_15                       1.000000
X_25_5                        1.000000
X_26_2                        1.000000
X_27_10                       1.000000
X_28_18                       1.000000
X_29_8                        1.000000
X_30_1                        1.000000
X_31_13                       1.000000
X_32_6                        1.000000
X_33_7                        1.000000
X_34_17                       1.000000
X_35_18                       1.000000
X_36_18                       1.000000
X_37_6                        1.000000
X_38_10                       1.000000
X_39_2                        1.000000
X_40_19                       1.000000
X_41_6                        1.000000
X_42_5                        1.000000
X_43_19                       1.000000
X_44_6                        1.000000
X_45_19                       1.000000
X_46_18                       1.000000
X_47_5                        1.000000
X_48_4                        1.000000
X_49_3                        1.000000
X_50_1                        1.000000
X_51_16                       1.000000
X_52_15                       1.000000
X_53_15                       1.000000
X_54_12                       1.000000
X_55_13                       1.000000
X_56_7                        1.000000
X_57_20                       1.000000
X_58_17                       1.000000
X_59_3                        1.000000
X_60_9                        1.000000
X_61_3                        1.000000
X_62_12                       1.000000
X_63_10                       1.000000
X_64_3                        1.000000
X_65_16                       1.000000
X_66_2                        1.000000
X_67_16                       1.000000
X_68_11                       1.000000
X_69_2                        1.000000
X_70_7                        1.000000
X_71_8                        1.000000
X_72_12                       1.000000
X_73_15                       1.000000
X_74_7                        1.000000
X_75_20                       1.000000
X_76_11                       1.000000
X_77_9                        1.000000
X_78_10                       1.000000
X_79_12                       1.000000
X_80_11                       1.000000
X_81_7                        1.000000
X_82_18                       1.000000
X_83_9                        1.000000
X_84_1                        1.000000
X_85_3                        1.000000
X_86_18                       1.000000
X_87_4                        1.000000
X_88_20                       1.000000
X_89_4                        1.000000
X_90_4                        1.000000
X_91_3                        1.000000
X_92_15                       1.000000
X_93_4                        1.000000
X_94_18                       1.000000
X_95_6                        1.000000
X_96_18                       1.000000
X_97_16                       1.000000
X_98_2                        1.000000
X_99_1                        1.000000
X_100_7                       1.000000
X_101_1                       1.000000
X_102_14                      1.000000
X_103_16                      1.000000
X_104_9                       1.000000
X_105_20                      1.000000
X_106_15                      1.000000
X_107_11                      1.000000
X_108_17                      1.000000
X_109_17                      1.000000
X_110_4                       1.000000
X_111_2                       1.000000
X_112_12                      1.000000
X_113_14                      1.000000
X_114_3                       1.000000
X_115_8                       1.000000
X_116_20                      1.000000
X_117_11                      1.000000
X_118_3                       1.000000
X_119_2                       1.000000
X_120_14                      1.000000
X_121_4                       1.000000
X_122_15                      1.000000
X_123_17                      1.000000
X_124_11                      1.000000
X_125_12                      1.000000
X_126_4                       1.000000
X_127_16                      1.000000
X_128_8                       1.000000
X_129_1                       1.000000
X_130_9                       1.000000
X_131_3                       1.000000
X_132_19                      1.000000
X_133_19                      1.000000
X_134_10                      1.000000
X_135_16                      1.000000
X_136_10                      1.000000
X_137_16                      1.000000
X_138_5                       1.000000
X_139_16                      1.000000
X_140_11                      1.000000
X_141_20                      1.000000
X_142_17                      1.000000
X_143_8                       1.000000
X_144_7                       1.000000
X_145_4                       1.000000
X_146_20                      1.000000
X_147_6                       1.000000
X_148_17                      1.000000
X_149_18                      1.000000
X_150_3                       1.000000
X_151_19                      1.000000
X_152_3                       1.000000
X_153_8                       1.000000
X_154_2                       1.000000
X_155_6                       1.000000
X_156_9                       1.000000
X_157_18                      1.000000
X_158_6                       1.000000
X_159_16                      1.000000
X_160_14                      1.000000
X_161_9                       1.000000
X_162_15                      1.000000
X_163_5                       1.000000
X_164_20                      1.000000
X_165_14                      1.000000
X_166_13                      1.000000
X_167_12                      1.000000
X_168_12                      1.000000
X_169_13                      1.000000
X_170_11                      1.000000
X_171_11                      1.000000
X_172_2                       1.000000
X_173_3                       1.000000
X_174_9                       1.000000
X_175_1                       1.000000
X_176_5                       1.000000
X_177_6                       1.000000
X_178_14                      1.000000
X_179_16                      1.000000
X_180_1                       1.000000
X_181_13                      1.000000
X_182_12                      1.000000
X_183_2                       1.000000
X_184_7                       1.000000
X_185_9                       1.000000
X_186_17                      1.000000
X_187_12                      1.000000
X_188_11                      1.000000
X_189_13                      1.000000
X_190_13                      1.000000
X_191_16                      1.000000
X_192_20                      1.000000
X_193_16                      1.000000
X_194_3                       1.000000
X_195_17                      1.000000
X_196_7                       1.000000
X_197_6                       1.000000
X_198_4                       1.000000
X_199_16                      1.000000
X_200_15                      1.000000
All other variables in the range 1-4001 are 0.
